CapLotSizing_PM/src/Instancias/TCLSLT/6i18p4m/NBB02.dat
6 18 4
 1
       630
       630
       630
       630
    2
     4
     3
     3
     2
     3
   1.4  27.0   819    21 
  2.5  39.5   880    25 
  4.2  48.0   259    18 
  2.5  43.7   450    18 
  3.4  19.7   285    21 
  4.3  39.4   123    20 
  3.8  25.4   137    24 
  4.2  28.0    52    23 
  2.5  35.9   828    18 
  1.6  43.1   551    19 
  2.9  13.2   464    19 
  1.2  46.6   381    15 
  1.7  11.9   128    22 
  2.7  31.7   782    25 
  1.1  47.0   589    15 
  4.6  15.5    88    17 
  5.0  31.6   437    22 
  1.8  29.7   767    21 
  4.9  32.5   485    20 
  4.0  28.0   815    20 
  1.6  19.6   302    24 
  2.7  41.3   578    24 
  3.7  22.6   160    19 
  1.9  13.6   267    18 
   98   133    95    17   169     6 
   84   136   152   159    69    69 
  157   174    24   170    87   173 
   35    65    61   163    36   121 
  144    29   175    35    25    93 
  167   113   169   133    65   119 
  167   141    45     6   132   173 
   75    47   112    96    65   110 
   20    77    81    25    45   105 
  143   140   131    16   145    31 
  125   128    27    35   128    24 
   29   114     2    70    74   127 
  166    19   178    80   155    65 
   68     5   147   149   152    62 
    6   133   166   170   150   142 
  141   114    48    83     4   130 
   72    52   134    45   120   124 
   71    11    91    64    42    23 
